peakDumbCharging = 18500; 
Machine = anon_enum(16); 
machineSpeed = [3700,3700,3700,3700,3700,3700,3700,3700,3700,3700,3700,3700,3700,3700,3700,3700]; 
machineLoad = [3700,3700,3700,3700,3700,3700,3700,3700,3700,3700,3700,3700,3700,3700,3700,3700]; 
Car = anon_enum(19); 
demandCar = [2000,15920,1600,16320,5920,5280,4960,4240,3080,4240,10640,4360,5600,3440,3240,2360,20760,24560,29680]; 
arrivalCar = [73,67,62,61,61,60,60,56,54,52,51,41,41,39,39,36,29,28,24]; 
departureCar = [76,76,64,67,65,64,62,58,56,56,55,44,45,43,41,38,60,38,41]; 
